c File: data_files/evolved_graphs/g6873.col
c
c Auto generated graph
c
p edge 100 1672
e 1 6
e 1 14
e 1 20
e 1 21
e 1 23
e 1 24
e 1 25
e 1 29
e 1 31
e 1 33
e 1 34
e 1 41
e 1 43
e 1 47
e 1 50
e 1 52
e 1 53
e 1 55
e 1 56
e 1 60
e 1 61
e 1 69
e 1 70
e 1 73
e 1 74
e 1 75
e 1 78
e 1 88
e 1 91
e 1 94
e 1 97
e 1 99
e 2 4
e 2 6
e 2 13
e 2 14
e 2 23
e 2 29
e 2 30
e 2 31
e 2 33
e 2 34
e 2 35
e 2 37
e 2 42
e 2 43
e 2 45
e 2 47
e 2 55
e 2 56
e 2 58
e 2 61
e 2 62
e 2 66
e 2 67
e 2 68
e 2 70
e 2 72
e 2 74
e 2 76
e 2 90
e 2 96
e 2 99
e 2 100
e 3 12
e 3 19
e 3 21
e 3 22
e 3 26
e 3 28
e 3 29
e 3 37
e 3 40
e 3 45
e 3 46
e 3 49
e 3 51
e 3 52
e 3 58
e 3 59
e 3 62
e 3 63
e 3 64
e 3 69
e 3 70
e 3 71
e 3 77
e 3 85
e 3 91
e 3 93
e 3 94
e 3 98
e 3 99
e 4 5
e 4 7
e 4 9
e 4 12
e 4 13
e 4 14
e 4 15
e 4 20
e 4 23
e 4 25
e 4 30
e 4 31
e 4 32
e 4 33
e 4 34
e 4 38
e 4 39
e 4 40
e 4 41
e 4 46
e 4 49
e 4 56
e 4 57
e 4 59
e 4 60
e 4 61
e 4 63
e 4 68
e 4 76
e 4 77
e 4 78
e 4 82
e 4 89
e 4 97
e 5 8
e 5 13
e 5 15
e 5 16
e 5 20
e 5 28
e 5 32
e 5 33
e 5 35
e 5 37
e 5 40
e 5 41
e 5 43
e 5 46
e 5 48
e 5 53
e 5 55
e 5 56
e 5 63
e 5 64
e 5 65
e 5 66
e 5 69
e 5 71
e 5 73
e 5 77
e 5 78
e 5 87
e 5 88
e 5 89
e 5 90
e 5 91
e 5 92
e 5 96
e 5 99
e 5 100
e 6 9
e 6 13
e 6 20
e 6 27
e 6 29
e 6 30
e 6 36
e 6 40
e 6 46
e 6 48
e 6 52
e 6 54
e 6 58
e 6 59
e 6 64
e 6 66
e 6 69
e 6 79
e 6 80
e 6 85
e 6 86
e 6 91
e 6 92
e 6 94
e 6 95
e 6 98
e 7 11
e 7 14
e 7 20
e 7 24
e 7 27
e 7 34
e 7 35
e 7 36
e 7 40
e 7 43
e 7 44
e 7 50
e 7 51
e 7 52
e 7 53
e 7 54
e 7 56
e 7 57
e 7 59
e 7 62
e 7 82
e 7 84
e 7 86
e 7 87
e 7 88
e 7 89
e 7 91
e 7 92
e 7 99
e 7 100
e 8 13
e 8 17
e 8 18
e 8 27
e 8 30
e 8 42
e 8 43
e 8 44
e 8 45
e 8 47
e 8 48
e 8 52
e 8 53
e 8 56
e 8 59
e 8 62
e 8 65
e 8 67
e 8 72
e 8 79
e 8 81
e 8 82
e 8 92
e 8 97
e 8 98
e 8 99
e 8 100
e 9 12
e 9 18
e 9 21
e 9 22
e 9 30
e 9 37
e 9 44
e 9 45
e 9 47
e 9 49
e 9 50
e 9 51
e 9 52
e 9 53
e 9 57
e 9 59
e 9 61
e 9 68
e 9 70
e 9 71
e 9 78
e 9 86
e 9 88
e 9 89
e 9 91
e 9 93
e 9 95
e 9 96
e 9 97
e 9 98
e 10 16
e 10 24
e 10 32
e 10 34
e 10 44
e 10 45
e 10 47
e 10 49
e 10 55
e 10 57
e 10 59
e 10 66
e 10 68
e 10 69
e 10 70
e 10 75
e 10 77
e 10 82
e 10 83
e 10 85
e 10 86
e 10 90
e 10 92
e 10 99
e 11 16
e 11 22
e 11 24
e 11 25
e 11 28
e 11 31
e 11 43
e 11 44
e 11 56
e 11 57
e 11 58
e 11 61
e 11 64
e 11 65
e 11 68
e 11 69
e 11 73
e 11 79
e 11 82
e 11 88
e 11 89
e 11 94
e 11 97
e 11 98
e 11 99
e 12 14
e 12 17
e 12 23
e 12 24
e 12 25
e 12 30
e 12 35
e 12 36
e 12 46
e 12 50
e 12 51
e 12 52
e 12 54
e 12 57
e 12 63
e 12 67
e 12 69
e 12 73
e 12 76
e 12 77
e 12 78
e 12 79
e 12 80
e 12 81
e 12 89
e 12 93
e 12 97
e 12 98
e 12 99
e 13 14
e 13 16
e 13 22
e 13 25
e 13 26
e 13 27
e 13 28
e 13 29
e 13 35
e 13 46
e 13 52
e 13 56
e 13 60
e 13 66
e 13 69
e 13 72
e 13 74
e 13 78
e 13 82
e 13 85
e 13 88
e 13 90
e 13 91
e 13 92
e 13 93
e 13 94
e 13 97
e 14 16
e 14 17
e 14 20
e 14 24
e 14 28
e 14 30
e 14 33
e 14 34
e 14 35
e 14 37
e 14 38
e 14 39
e 14 41
e 14 42
e 14 45
e 14 47
e 14 52
e 14 54
e 14 56
e 14 63
e 14 65
e 14 69
e 14 71
e 14 72
e 14 76
e 14 85
e 14 88
e 14 89
e 14 90
e 14 94
e 14 97
e 14 98
e 15 16
e 15 25
e 15 29
e 15 32
e 15 34
e 15 38
e 15 39
e 15 40
e 15 42
e 15 44
e 15 48
e 15 55
e 15 61
e 15 63
e 15 65
e 15 68
e 15 70
e 15 76
e 15 77
e 15 78
e 15 79
e 15 80
e 15 87
e 15 93
e 15 96
e 15 97
e 15 98
e 15 100
e 16 20
e 16 21
e 16 22
e 16 23
e 16 24
e 16 26
e 16 27
e 16 29
e 16 30
e 16 31
e 16 37
e 16 38
e 16 40
e 16 41
e 16 45
e 16 49
e 16 53
e 16 55
e 16 56
e 16 57
e 16 63
e 16 64
e 16 67
e 16 69
e 16 72
e 16 73
e 16 78
e 16 80
e 16 83
e 16 87
e 16 90
e 16 91
e 16 94
e 16 95
e 16 97
e 17 18
e 17 19
e 17 20
e 17 21
e 17 22
e 17 24
e 17 29
e 17 31
e 17 35
e 17 37
e 17 39
e 17 40
e 17 45
e 17 47
e 17 48
e 17 51
e 17 52
e 17 53
e 17 58
e 17 60
e 17 65
e 17 67
e 17 71
e 17 77
e 17 83
e 17 86
e 17 88
e 17 92
e 17 93
e 17 96
e 17 98
e 17 100
e 18 19
e 18 26
e 18 27
e 18 32
e 18 35
e 18 38
e 18 39
e 18 40
e 18 43
e 18 45
e 18 48
e 18 49
e 18 50
e 18 52
e 18 53
e 18 56
e 18 57
e 18 58
e 18 61
e 18 68
e 18 73
e 18 74
e 18 75
e 18 81
e 18 83
e 18 84
e 18 86
e 18 94
e 18 97
e 18 98
e 18 100
e 19 21
e 19 22
e 19 26
e 19 27
e 19 30
e 19 35
e 19 36
e 19 38
e 19 39
e 19 43
e 19 44
e 19 52
e 19 53
e 19 55
e 19 56
e 19 59
e 19 61
e 19 65
e 19 66
e 19 69
e 19 71
e 19 77
e 19 78
e 19 79
e 19 82
e 19 85
e 19 87
e 19 90
e 19 93
e 19 94
e 19 95
e 19 96
e 20 21
e 20 29
e 20 35
e 20 38
e 20 39
e 20 42
e 20 43
e 20 44
e 20 45
e 20 49
e 20 50
e 20 58
e 20 59
e 20 63
e 20 69
e 20 71
e 20 75
e 20 77
e 20 78
e 20 81
e 20 86
e 20 88
e 20 90
e 20 97
e 20 99
e 20 100
e 21 24
e 21 26
e 21 37
e 21 38
e 21 40
e 21 41
e 21 42
e 21 43
e 21 46
e 21 51
e 21 53
e 21 59
e 21 60
e 21 62
e 21 63
e 21 67
e 21 70
e 21 78
e 21 82
e 21 86
e 21 87
e 21 88
e 21 92
e 21 93
e 21 96
e 22 33
e 22 35
e 22 36
e 22 38
e 22 40
e 22 41
e 22 44
e 22 45
e 22 49
e 22 51
e 22 53
e 22 55
e 22 59
e 22 60
e 22 64
e 22 68
e 22 69
e 22 72
e 22 73
e 22 74
e 22 79
e 22 80
e 22 85
e 22 87
e 22 89
e 22 90
e 22 92
e 22 95
e 22 97
e 22 99
e 22 100
e 23 24
e 23 27
e 23 29
e 23 31
e 23 32
e 23 39
e 23 41
e 23 43
e 23 44
e 23 46
e 23 52
e 23 54
e 23 63
e 23 67
e 23 70
e 23 73
e 23 75
e 23 77
e 23 80
e 23 89
e 23 90
e 23 92
e 23 94
e 23 95
e 23 96
e 24 29
e 24 30
e 24 32
e 24 37
e 24 38
e 24 41
e 24 43
e 24 45
e 24 46
e 24 47
e 24 48
e 24 50
e 24 52
e 24 54
e 24 55
e 24 57
e 24 60
e 24 62
e 24 76
e 24 79
e 24 83
e 24 85
e 24 86
e 24 87
e 24 89
e 24 91
e 24 92
e 24 94
e 24 95
e 25 29
e 25 34
e 25 35
e 25 36
e 25 37
e 25 39
e 25 45
e 25 47
e 25 48
e 25 50
e 25 54
e 25 56
e 25 60
e 25 61
e 25 64
e 25 66
e 25 73
e 25 74
e 25 81
e 25 82
e 25 87
e 25 93
e 25 96
e 26 36
e 26 37
e 26 39
e 26 41
e 26 42
e 26 43
e 26 44
e 26 45
e 26 50
e 26 54
e 26 55
e 26 56
e 26 58
e 26 60
e 26 62
e 26 63
e 26 65
e 26 72
e 26 73
e 26 74
e 26 77
e 26 78
e 26 84
e 26 91
e 26 92
e 26 93
e 27 30
e 27 32
e 27 36
e 27 38
e 27 40
e 27 47
e 27 48
e 27 49
e 27 51
e 27 54
e 27 55
e 27 56
e 27 59
e 27 62
e 27 67
e 27 70
e 27 72
e 27 79
e 27 80
e 27 81
e 27 82
e 27 84
e 27 88
e 27 91
e 27 94
e 27 97
e 27 99
e 28 31
e 28 36
e 28 47
e 28 49
e 28 51
e 28 55
e 28 56
e 28 58
e 28 60
e 28 63
e 28 67
e 28 68
e 28 76
e 28 78
e 28 81
e 28 83
e 28 84
e 28 85
e 28 86
e 28 87
e 28 88
e 28 89
e 28 92
e 28 94
e 28 96
e 28 99
e 29 45
e 29 56
e 29 62
e 29 65
e 29 66
e 29 71
e 29 75
e 29 78
e 29 79
e 29 80
e 29 81
e 29 84
e 29 85
e 29 91
e 29 94
e 29 95
e 29 97
e 29 98
e 29 100
e 30 41
e 30 42
e 30 44
e 30 45
e 30 48
e 30 49
e 30 53
e 30 54
e 30 55
e 30 57
e 30 58
e 30 59
e 30 60
e 30 69
e 30 76
e 30 82
e 30 83
e 30 84
e 30 93
e 30 94
e 30 96
e 30 97
e 30 98
e 30 99
e 31 36
e 31 38
e 31 41
e 31 42
e 31 44
e 31 46
e 31 48
e 31 49
e 31 51
e 31 53
e 31 56
e 31 64
e 31 66
e 31 67
e 31 70
e 31 71
e 31 74
e 31 76
e 31 77
e 31 79
e 31 84
e 31 90
e 32 47
e 32 49
e 32 51
e 32 52
e 32 58
e 32 60
e 32 61
e 32 62
e 32 64
e 32 66
e 32 69
e 32 70
e 32 71
e 32 74
e 32 75
e 32 76
e 32 78
e 32 80
e 32 82
e 32 88
e 32 89
e 32 91
e 32 98
e 32 100
e 33 35
e 33 36
e 33 37
e 33 40
e 33 41
e 33 42
e 33 43
e 33 48
e 33 49
e 33 52
e 33 54
e 33 55
e 33 61
e 33 65
e 33 66
e 33 67
e 33 70
e 33 72
e 33 75
e 33 77
e 33 80
e 33 82
e 33 86
e 33 91
e 33 94
e 33 100
e 34 36
e 34 39
e 34 40
e 34 41
e 34 42
e 34 44
e 34 46
e 34 47
e 34 48
e 34 50
e 34 57
e 34 58
e 34 59
e 34 61
e 34 63
e 34 65
e 34 67
e 34 68
e 34 71
e 34 72
e 34 74
e 34 81
e 34 83
e 34 85
e 34 90
e 34 91
e 34 93
e 35 40
e 35 42
e 35 46
e 35 48
e 35 55
e 35 58
e 35 65
e 35 66
e 35 67
e 35 68
e 35 69
e 35 70
e 35 73
e 35 74
e 35 76
e 35 78
e 35 82
e 35 86
e 35 87
e 35 91
e 35 96
e 35 97
e 36 42
e 36 44
e 36 50
e 36 52
e 36 56
e 36 60
e 36 64
e 36 69
e 36 71
e 36 75
e 36 77
e 36 78
e 36 79
e 36 80
e 36 81
e 36 83
e 36 85
e 36 86
e 36 87
e 36 100
e 37 42
e 37 46
e 37 47
e 37 48
e 37 51
e 37 52
e 37 54
e 37 57
e 37 61
e 37 66
e 37 68
e 37 69
e 37 72
e 37 73
e 37 77
e 37 78
e 37 80
e 37 83
e 37 88
e 37 100
e 38 41
e 38 45
e 38 46
e 38 50
e 38 51
e 38 52
e 38 55
e 38 61
e 38 67
e 38 70
e 38 72
e 38 76
e 38 81
e 38 84
e 38 87
e 38 92
e 38 95
e 38 98
e 38 100
e 39 42
e 39 49
e 39 53
e 39 54
e 39 55
e 39 61
e 39 65
e 39 66
e 39 67
e 39 68
e 39 71
e 39 73
e 39 78
e 39 80
e 39 83
e 39 85
e 39 89
e 39 91
e 39 92
e 39 94
e 39 95
e 39 99
e 40 43
e 40 46
e 40 53
e 40 54
e 40 59
e 40 60
e 40 67
e 40 68
e 40 71
e 40 75
e 40 80
e 40 83
e 40 89
e 40 93
e 40 94
e 40 98
e 41 48
e 41 56
e 41 59
e 41 60
e 41 62
e 41 63
e 41 66
e 41 67
e 41 69
e 41 71
e 41 80
e 41 81
e 41 84
e 41 85
e 41 86
e 41 87
e 41 91
e 41 93
e 41 95
e 41 97
e 41 98
e 41 100
e 42 44
e 42 45
e 42 46
e 42 60
e 42 62
e 42 66
e 42 67
e 42 69
e 42 75
e 42 79
e 42 83
e 42 87
e 42 89
e 42 91
e 42 96
e 42 97
e 42 98
e 43 44
e 43 53
e 43 54
e 43 55
e 43 60
e 43 63
e 43 68
e 43 71
e 43 72
e 43 73
e 43 76
e 43 78
e 43 79
e 43 81
e 43 82
e 43 85
e 43 86
e 43 89
e 44 53
e 44 54
e 44 58
e 44 61
e 44 63
e 44 65
e 44 67
e 44 68
e 44 69
e 44 70
e 44 72
e 44 74
e 44 77
e 44 87
e 44 88
e 44 90
e 44 91
e 44 93
e 44 98
e 45 50
e 45 53
e 45 55
e 45 56
e 45 59
e 45 64
e 45 66
e 45 67
e 45 68
e 45 75
e 45 89
e 45 95
e 45 98
e 46 55
e 46 59
e 46 60
e 46 61
e 46 64
e 46 67
e 46 72
e 46 73
e 46 74
e 46 76
e 46 77
e 46 78
e 46 79
e 46 81
e 46 84
e 46 85
e 46 91
e 46 98
e 46 99
e 47 49
e 47 55
e 47 59
e 47 67
e 47 69
e 47 70
e 47 72
e 47 73
e 47 74
e 47 79
e 47 81
e 47 86
e 47 89
e 47 91
e 47 94
e 47 100
e 48 51
e 48 54
e 48 56
e 48 57
e 48 58
e 48 59
e 48 61
e 48 62
e 48 63
e 48 65
e 48 67
e 48 73
e 48 76
e 48 78
e 48 79
e 48 85
e 48 87
e 48 90
e 48 92
e 48 95
e 49 54
e 49 57
e 49 60
e 49 61
e 49 62
e 49 73
e 49 75
e 49 76
e 49 77
e 49 85
e 49 86
e 49 87
e 49 90
e 49 91
e 49 94
e 49 95
e 49 96
e 49 100
e 50 53
e 50 56
e 50 57
e 50 60
e 50 62
e 50 64
e 50 68
e 50 70
e 50 71
e 50 72
e 50 75
e 50 76
e 50 77
e 50 79
e 50 80
e 50 86
e 50 88
e 50 90
e 50 94
e 50 96
e 51 52
e 51 53
e 51 54
e 51 62
e 51 63
e 51 66
e 51 68
e 51 71
e 51 72
e 51 79
e 51 81
e 51 82
e 51 84
e 51 87
e 51 88
e 51 91
e 51 92
e 51 96
e 51 97
e 51 99
e 52 53
e 52 58
e 52 61
e 52 69
e 52 71
e 52 72
e 52 75
e 52 78
e 52 83
e 52 89
e 52 92
e 52 94
e 52 100
e 53 54
e 53 64
e 53 67
e 53 68
e 53 71
e 53 74
e 53 78
e 53 82
e 53 83
e 53 87
e 53 90
e 53 91
e 53 94
e 53 96
e 53 99
e 54 62
e 54 64
e 54 70
e 54 73
e 54 77
e 54 81
e 54 83
e 54 84
e 54 89
e 54 90
e 54 92
e 54 93
e 54 95
e 54 98
e 55 60
e 55 61
e 55 63
e 55 77
e 55 79
e 55 86
e 55 89
e 55 91
e 55 92
e 55 97
e 55 99
e 56 59
e 56 61
e 56 62
e 56 71
e 56 73
e 56 78
e 56 83
e 56 87
e 56 88
e 56 93
e 56 97
e 56 98
e 56 99
e 57 63
e 57 71
e 57 72
e 57 73
e 57 75
e 57 78
e 57 79
e 57 82
e 57 83
e 57 84
e 57 86
e 57 90
e 57 93
e 57 94
e 57 99
e 57 100
e 58 59
e 58 60
e 58 61
e 58 63
e 58 69
e 58 70
e 58 71
e 58 73
e 58 75
e 58 83
e 58 87
e 58 88
e 58 92
e 58 94
e 58 95
e 58 96
e 58 99
e 58 100
e 59 60
e 59 64
e 59 65
e 59 74
e 59 77
e 59 80
e 59 81
e 59 84
e 59 87
e 59 89
e 59 94
e 59 95
e 59 99
e 60 75
e 60 76
e 60 79
e 60 80
e 60 85
e 60 87
e 60 88
e 60 90
e 60 91
e 60 93
e 60 96
e 60 97
e 60 100
e 61 62
e 61 74
e 61 77
e 61 78
e 61 82
e 61 83
e 61 85
e 61 87
e 61 88
e 61 89
e 61 90
e 61 92
e 61 97
e 61 98
e 62 70
e 62 74
e 62 76
e 62 77
e 62 79
e 62 80
e 62 82
e 62 83
e 62 84
e 62 85
e 62 89
e 62 90
e 62 91
e 62 92
e 62 97
e 62 98
e 62 100
e 63 67
e 63 71
e 63 72
e 63 74
e 63 75
e 63 78
e 63 80
e 63 81
e 63 82
e 63 89
e 63 90
e 63 91
e 63 93
e 63 96
e 63 97
e 64 67
e 64 69
e 64 70
e 64 71
e 64 72
e 64 73
e 64 74
e 64 76
e 64 77
e 64 80
e 64 82
e 64 83
e 64 84
e 64 85
e 64 92
e 64 94
e 64 96
e 65 70
e 65 72
e 65 74
e 65 75
e 65 76
e 65 77
e 65 78
e 65 79
e 65 84
e 65 88
e 65 89
e 65 91
e 65 95
e 65 97
e 66 68
e 66 69
e 66 71
e 66 73
e 66 75
e 66 79
e 66 80
e 66 81
e 66 82
e 66 84
e 66 87
e 66 88
e 66 90
e 66 91
e 66 92
e 66 93
e 66 94
e 66 95
e 66 98
e 67 70
e 67 76
e 67 80
e 67 81
e 67 82
e 67 85
e 67 88
e 67 91
e 67 95
e 67 100
e 68 70
e 68 73
e 68 76
e 68 77
e 68 78
e 68 80
e 68 81
e 68 83
e 68 85
e 68 88
e 68 97
e 68 98
e 69 71
e 69 73
e 69 74
e 69 77
e 69 78
e 69 79
e 69 81
e 69 83
e 69 90
e 69 93
e 69 94
e 69 97
e 69 100
e 70 76
e 70 78
e 70 92
e 70 93
e 70 96
e 70 99
e 70 100
e 71 72
e 71 75
e 71 76
e 71 79
e 71 86
e 71 93
e 71 95
e 72 73
e 72 75
e 72 84
e 72 85
e 72 87
e 72 94
e 72 96
e 72 97
e 72 99
e 73 78
e 73 85
e 73 87
e 73 91
e 73 95
e 73 96
e 73 98
e 74 75
e 74 76
e 74 80
e 74 81
e 74 82
e 74 83
e 74 86
e 74 87
e 74 90
e 74 93
e 74 98
e 75 82
e 75 83
e 75 84
e 75 87
e 75 89
e 75 95
e 75 96
e 75 99
e 76 80
e 76 83
e 76 86
e 76 87
e 76 95
e 76 99
e 77 81
e 77 84
e 77 92
e 77 95
e 77 96
e 77 97
e 77 98
e 78 84
e 78 85
e 78 86
e 78 88
e 78 89
e 78 99
e 78 100
e 79 86
e 79 89
e 79 90
e 79 91
e 79 92
e 79 94
e 79 97
e 80 86
e 80 87
e 80 88
e 80 89
e 80 94
e 80 98
e 80 99
e 80 100
e 81 83
e 81 95
e 81 97
e 81 100
e 82 83
e 82 85
e 82 88
e 82 92
e 82 96
e 83 84
e 83 92
e 83 95
e 83 96
e 83 97
e 83 100
e 84 85
e 84 94
e 84 96
e 84 98
e 84 100
e 85 90
e 85 92
e 85 96
e 85 98
e 86 87
e 86 88
e 86 92
e 86 93
e 86 94
e 86 98
e 86 100
e 87 95
e 87 96
e 87 98
e 87 99
e 88 90
e 88 91
e 88 95
e 88 98
e 88 99
e 89 92
e 89 95
e 89 99
e 90 95
e 90 96
e 90 100
e 91 95
e 91 97
e 92 93
e 92 95
e 92 97
e 92 99
e 93 95
e 93 97
e 93 98
e 93 99
e 93 100
e 96 100
e 99 100
